/*********************************************
    * Lab01 - FCD_FCR
    * Author: Coso
    * Creation Date: Mar, 2019
    *********************************************/
instance_name = "small_instance_21_FCD_FCR";

d = 2;
r = 3;

SCj = [159 159];
Fj = [2369, 3017];
Dk = [92 91 85];

Cjk = [[58 77 66]
 [66 34 67]];
Fjk = [[798 711 879]
 [309 379 753]];
